
Gurobi 11.0.1 (win64) logging started Mon May 13 15:36:48 2024

Set parameter LogFile to value "output/solver_log8.txt"
Gurobi Optimizer version 11.0.1 build v11.0.1rc0 (win64 - Windows 11.0 (22631.2))

CPU model: 11th Gen Intel(R) Core(TM) i7-1165G7 @ 2.80GHz, instruction set [SSE2|AVX|AVX2|AVX512]
Thread count: 4 physical cores, 8 logical processors, using up to 8 threads

Optimize a model with 2216 rows, 426 columns and 41007 nonzeros
Model fingerprint: 0x130e3afc
Variable types: 248 continuous, 178 integer (178 binary)
Coefficient statistics:
  Matrix range     [4e-01, 1e+05]
  Objective range  [1e+00, 1e+02]
  Bounds range     [1e+00, 1e+00]
  RHS range        [1e-02, 1e+05]

User MIP start produced solution with objective 75206.9 (0.01s)
User MIP start produced solution with objective 75206.9 (0.01s)
Loaded user MIP start with objective 75206.9

Presolve removed 107 rows and 106 columns
Presolve time: 0.06s
Presolved: 2109 rows, 320 columns, 40450 nonzeros
Variable types: 228 continuous, 92 integer (92 binary)

Root relaxation: objective 7.526349e+04, 496 iterations, 0.03 seconds (0.06 work units)

    Nodes    |    Current Node    |     Objective Bounds      |     Work
 Expl Unexpl |  Obj  Depth IntInf | Incumbent    BestBd   Gap | It/Node Time

     0     0 75263.4948    0    3 75206.9251 75263.4948  0.08%     -    0s
     0     0 75263.4948    0    3 75206.9251 75263.4948  0.08%     -    0s
     0     0 infeasible    0      75206.9251 75206.9251  0.00%     -    0s

Explored 1 nodes (969 simplex iterations) in 0.37 seconds (0.44 work units)
Thread count was 8 (of 8 available processors)

Solution count 2: 75206.9 75206.9 

Optimal solution found (tolerance 1.00e-04)
Best objective 7.520692508308e+04, best bound 7.520692508308e+04, gap 0.0000%
